(declare-fun e () String)
(declare-fun b () String)
(declare-fun d () String)
(declare-fun f () String)
(declare-fun h () String)
(assert (= (str.++ "e" e "ga" f "f") (str.++ b "f")))
(assert (= b (str.++ d "e" f "gfg")))
(assert (= "h" (str.++ "ca" h)))

(check-sat)
